param n := 2;

param m := 2;

param K := 50;

param a :=
1 	 0.556240
2 	 0.136455
;
 param A :=
[1, *, *]:  1	2	:=
1	-0.880165	-0.910896	
2	-0.757313	-0.785012	

[2, *, *]:  1	2	:=
1	-0.548581	0.119434	
2	0.425978	-0.974888	
;